NAME : amz2514.125219_125219.tour
COMMENT : Cost = 125219_125219
COMMENT : Found by LKH-AMZ [Keld Helsgaun] Sun May 11 13:59:42 2025
COMMENT : TW viol.: 0 #: 0
TYPE : TOUR
DIMENSION : 136
TOUR_SECTION
5
55
115
87
62
46
21
56
1
128
134
98
132
117
37
96
66
61
92
23
79
124
89
101
7
105
34
67
69
59
24
63
68
9
129
18
107
103
42
77
121
51
3
22
25
6
106
104
126
83
84
13
130
11
17
93
136
88
116
97
102
52
54
28
64
14
82
99
85
125
120
70
75
2
71
10
30
50
31
20
19
74
48
95
112
127
39
119
49
47
90
118
114
109
133
81
26
110
16
12
111
43
108
44
72
8
122
4
80
40
38
135
73
100
94
131
27
86
78
29
36
57
91
32
45
33
123
60
15
76
41
53
65
58
113
35
-1
EOF
